(set-logic QF_S)
(declare-fun var0 () Int)
(declare-fun var1 () Int)
(declare-fun var2 () String)
(declare-fun var3 () Int)
(declare-fun var4 () Int)
(declare-fun var5 () String)
(declare-fun var6 () String)
(declare-fun var7 () String)
(declare-fun var8 () Bool)
(assert (<= (str.indexof (str.substr ">n" var0 var1) (str.substr var2 var3 var4) (str.len var5)) (str.to.int ";JQDOT|hE")))
(assert (str.contains var6 var7))
(assert (str.suffixof (str.at var5 var0) (str.at var6 var1)))
(assert (not (not var8)))
(check-sat)